&CONTROL
  calculation = 'relax'
  etot_conv_thr =   2.7000000000d-04
  forc_conv_thr =   1.0000000000d-05
  outdir = './out/'
  prefix = 'Ni (111) relax'
  pseudo_dir = './pseudo/'
  tprnfor = .true.
  tstress = .true.
  verbosity = 'high'
/
&SYSTEM
  degauss =   1.4699723600d-02
  ecutrho =   360
  ecutwfc =   45
  ibrav = 0
  nat = 27
  nosym = .false.
  nspin = 2
  ntyp = 1
  occupations = 'smearing'
  smearing = 'cold'
  starting_magnetization(1) =   2.7777777778d-01
/
&ELECTRONS
  conv_thr =   5.4000000000d-09
  electron_maxstep = 80
  mixing_beta =   4.0000000000d-01
/
&IONS
  ion_dynamics = 'bfgs',
/
&CELL
  cell_dynamics = 'bfgs'
  press = 0.0
  press_conv_thr = 0.5
/
ATOMIC_SPECIES
Ni     58.6934 ni_pbesol_v1.4.uspp.F.UPF
ATOMIC_POSITIONS crystal
Ni           0.6692780556       0.0000000000       0.0000000000 
Ni           0.6692779880       0.6692780575       0.0000000000 
Ni           0.5577317211       0.1115462901       0.1246814556 
Ni           0.5577316534       0.7808243476       0.1246814556 
Ni           0.5577316187       0.4461853189       0.1246814556 
Ni           0.2230926247       0.1115462901       0.1246814556 
Ni           0.2230926942       0.7808243476       0.1246814556 
Ni           0.8923706803       0.1115462901       0.1246814556 
Ni           0.8923707498       0.7808243476       0.1246814556 
Ni           0.2230926594       0.4461853189       0.1246815181 
Ni           0.8923707151       0.4461853189       0.1246815181 
Ni           0.4461853285       0.2230927386       0.2493629737 
Ni           0.4461853189       0.8923706378       0.2493629737 
Ni           0.1115464041       0.5577317674       0.2493629737 
Ni           0.7808244597       0.5577317674       0.2493629737 
Ni           0.3346389940       0.3346390288       0.0000000000 
Ni           0.0039170496       0.3346390288       0.0000000000 
Ni           0.1115463693       0.2230927386       0.2493629737 
Ni           0.1115464389       0.8923707962       0.2493629737 
Ni           0.7808244249       0.2230927386       0.2493629737 
Ni           0.7808243573       0.8923707962       0.2493629737 
Ni           0.3346389592       0.0000000000       0.0000000000 
Ni           0.3346390288       0.6692780575       0.0000000000 
Ni           0.0039170148       0.0000000000       0.0000000000 
Ni           0.0039170844       0.6692780575       0.0000000000 
Ni           0.4461853633       0.5577317674       0.2493629737 
Ni           0.6692780904       0.3346390288       0.0000000000 
K_POINTS automatic
5 5 2 0 0 0
CELL_PARAMETERS angstrom
      7.2899999619       0.0000000000       0.0000000000
     -3.6449999809       6.3133251606       0.0000000000
      0.0000000000       0.0000000000      15.9755754471
